(set-logic QF_UF)
(declare-fun A0 () Bool)
(declare-fun A2 () Bool)
(declare-fun A3 () Bool)
(declare-fun A4 () Bool)
(declare-fun A5 () Bool)
(declare-fun A6 () Bool)
(declare-fun A7 () Bool)
(declare-fun A8 () Bool)
(declare-fun A9 () Bool)
(declare-fun A10 () Bool)
(declare-fun A11 () Bool)
(declare-fun A12 () Bool)
(declare-fun A13 () Bool)
(declare-fun A14 () Bool)
(declare-fun A15 () Bool)
(declare-fun A16 () Bool)
(declare-fun A17 () Bool)
(declare-fun A18 () Bool)
(declare-fun A19 () Bool)
(declare-fun A20 () Bool)
(declare-fun A21 () Bool)
(declare-fun A24 () Bool)
(declare-fun A25 () Bool)
(declare-fun A26 () Bool)
(declare-fun A27 () Bool)
(declare-fun A28 () Bool)
(declare-fun A29 () Bool)
(assert (let ((.def_0 (not A3))) (let ((.def_1 (not A19))) (let ((.def_2 (and .def_1 .def_0))) (let ((.def_3 (not .def_2))) (let ((.def_4 (not A8))) (let ((.def_5 (not A7))) (let ((.def_6 (and .def_5 .def_4))) (let ((.def_7 (or .def_6 .def_3))) (let ((.def_8 (not A13))) (let ((.def_9 (or .def_8 .def_8))) (let ((.def_10 (not .def_9))) (let ((.def_11 (not A26))) (let ((.def_12 (and A3 .def_11))) (let ((.def_13 (or .def_12 .def_10))) (let ((.def_14 (and .def_13 .def_7))) (let ((.def_15 (and A13 A20))) (let ((.def_16 (not .def_15))) (let ((.def_17 (and .def_4 A8))) (let ((.def_18 (and .def_17 .def_16))) (let ((.def_19 (or A16 A4))) (let ((.def_20 (and A8 A29))) (let ((.def_21 (or .def_20 .def_19))) (let ((.def_22 (or .def_21 .def_18))) (let ((.def_23 (and .def_22 .def_14))) (let ((.def_24 (not .def_23))) (let ((.def_25 (not A28))) (let ((.def_26 (and .def_25 A21))) (let ((.def_27 (not A2))) (let ((.def_28 (and .def_27 .def_1))) (let ((.def_29 (or .def_28 .def_26))) (let ((.def_30 (not .def_29))) (let ((.def_31 (not A15))) (let ((.def_32 (or .def_31 A18))) (let ((.def_33 (or A13 A15))) (let ((.def_34 (and .def_33 .def_32))) (let ((.def_35 (or .def_34 .def_30))) (let ((.def_36 (not .def_35))) (let ((.def_37 (and A26 A20))) (let ((.def_38 (not .def_37))) (let ((.def_39 (not A11))) (let ((.def_40 (and .def_39 .def_0))) (let ((.def_41 (not .def_40))) (let ((.def_42 (= .def_41 .def_38))) (let ((.def_43 (not .def_42))) (let ((.def_44 (and .def_0 A6))) (let ((.def_45 (not .def_44))) (let ((.def_46 (or A26 A6))) (let ((.def_47 (not .def_46))) (let ((.def_48 (= .def_47 .def_45))) (let ((.def_49 (not .def_48))) (let ((.def_50 (and .def_49 .def_43))) (let ((.def_51 (not .def_50))) (let ((.def_52 (or .def_51 .def_36))) (let ((.def_53 (and .def_52 .def_24))) (let ((.def_54 (= A4 .def_4))) (let ((.def_55 (not A9))) (let ((.def_56 (or A4 .def_55))) (let ((.def_57 (not .def_56))) (let ((.def_58 (= .def_57 .def_54))) (let ((.def_59 (not .def_58))) (let ((.def_60 (not A14))) (let ((.def_61 (or A24 .def_60))) (let ((.def_62 (not A27))) (let ((.def_63 (and A14 .def_62))) (let ((.def_64 (not .def_63))) (let ((.def_65 (or .def_64 .def_61))) (let ((.def_66 (not .def_65))) (let ((.def_67 (or .def_66 .def_59))) (let ((.def_68 (not A17))) (let ((.def_69 (= A27 .def_68))) (let ((.def_70 (not .def_69))) (let ((.def_71 (and A16 .def_5))) (let ((.def_72 (= .def_71 .def_70))) (let ((.def_73 (or A21 A21))) (let ((.def_74 (not .def_73))) (let ((.def_75 (or A0 .def_11))) (let ((.def_76 (or .def_75 .def_74))) (let ((.def_77 (not .def_76))) (let ((.def_78 (or .def_77 .def_72))) (let ((.def_79 (not .def_78))) (let ((.def_80 (or .def_79 .def_67))) (let ((.def_81 (not .def_80))) (let ((.def_82 (not A21))) (let ((.def_83 (or .def_82 A5))) (let ((.def_84 (not .def_83))) (let ((.def_85 (or A15 .def_55))) (let ((.def_86 (not .def_85))) (let ((.def_87 (or .def_86 .def_84))) (let ((.def_88 (or .def_11 A14))) (let ((.def_89 (not A25))) (let ((.def_90 (or A12 .def_89))) (let ((.def_91 (not .def_90))) (let ((.def_92 (= .def_91 .def_88))) (let ((.def_93 (and .def_92 .def_87))) (let ((.def_94 (not .def_93))) (let ((.def_95 (or .def_27 A19))) (let ((.def_96 (not .def_95))) (let ((.def_97 (or .def_1 .def_5))) (let ((.def_98 (or .def_97 .def_96))) (let ((.def_99 (not A29))) (let ((.def_100 (or .def_99 .def_60))) (let ((.def_101 (or A10 A21))) (let ((.def_102 (not .def_101))) (let ((.def_103 (and .def_102 .def_100))) (let ((.def_104 (and .def_103 .def_98))) (let ((.def_105 (and .def_104 .def_94))) (let ((.def_106 (not .def_105))) (let ((.def_107 (or .def_106 .def_81))) (let ((.def_108 (and .def_107 .def_53))) .def_108))))))))))))))))))))))))))))))))))))))))))))))))))))))))))))))))))))))))))))))))))))))))))))))))))))))))))))))
(check-sat)
